n_res = 4;
rc = [ 42, 39, 37, 46 ];
n_tasks = 30;
d = [ 4, 1, 8, 8, 6, 2, 10, 1, 1, 5, 8, 6, 6, 4, 7, 3, 1, 7, 5, 2, 5, 8, 1, 3, 10, 4, 9, 4, 6, 9 ];
rr = [| 42, 42, 42, 42, 42, 42, 42, 42, 42, 42, 42, 42, 42, 42, 42, 42, 42, 42, 42, 42, 42, 42, 42, 42, 42, 42, 42, 42, 42, 42
      | 39, 39, 39, 39, 39, 39, 39, 39, 39, 39, 39, 39, 39, 39, 39, 39, 39, 39, 39, 39, 39, 39, 39, 39, 39, 39, 39, 39, 39, 39
      | 37, 37, 37, 37, 37, 37, 37, 37, 37, 37, 37, 37, 37, 37, 37, 37, 37, 37, 37, 37, 37, 37, 37, 37, 37, 37, 37, 37, 37, 37
      | 46, 46, 46, 46, 46, 46, 46, 46, 46, 46, 46, 46, 46, 46, 46, 46, 46, 46, 46, 46, 46, 46, 46, 46, 46, 46, 46, 46, 46, 46|];
suc = [ { 4, 6 },
       { 4, 5, 11 },
       { 12, 19 },
       { 28 },
       { 10, 14 },
       { 7, 8, 9 },
       { 22, 28, 29 },
       { 13 },
       { 20 },
       { 15, 27 },
       { 16, 23, 30 },
       { 15 },
       { 18, 22 },
       { 21 },
       { 17, 24 },
       { 18, 20 },
       { 26 },
       { 21 },
       { 28 },
       { 24 },
       { 27 },
       { 25 },
       { 27 },
       { 29 },
       { 26 },
       { 30 },
       { 29 },
       {  },
       {  },
       {  } ];
